(declare-fun c () String)
(declare-fun g () String)
(declare-fun b () String)
(declare-fun d () String)
(declare-fun f () String)
(declare-fun a () String)
(declare-fun h () String)
(assert (= (str.++ d "dhf" g) (str.++ c "be")))
(assert (= (str.++ h "fhdh") (str.++ "bd" f)))
(assert (= (str.++ "b" b "a" h) (str.++ d a "b" a)))

(check-sat)
